NAME: tsp15_19
COMMENT: 15-tsp problem (Padberg/Rinaldi)
TYPE: TSP
DIMENSION: 15
EDGE_WEIGHT_TYPE : EUC_2D
NODE_COORD_SECTION
1 24 9
2 31 6
3 22 0
4 21 33
5 13 19
6 1 27
7 25 32
8 20 7
9 31 27
10 3 21
11 15 36
12 37 27
13 27 17
14 3 16
15 28 20
